500 50
73 115
76 91
16 20
94 101
188 203
267 251
204 304
141 162
303 449
269 482
294 336
208 201
77 127
236 265
370 661
240 451
198 380
365 710
265 489
251 327
78 84
276 479
119 108
166 251
369 731
56 98
249 464
353 331
128 145
245 323
256 235
294 285
152 176
325 496
117 184
300 347
165 213
118 110
61 56
53 77
280 349
346 417
33 43
367 387
77 146
287 464
52 69
302 413
177 238
18 21
